c A SAT instance generated from a 3-CNF formula that had 24 clauses and 6 variables
p cnf 6 24
3 -4 5 0
-3 -1 -2 0
-1 -2 4 0
-6 -3 4 0
2 1 3 0
3 -5 1 0
1 -6 -4 0
-4 -5 2 0
-4 -5 -1 0
2 -4 -1 0
1 4 6 0
-3 -2 -4 0
4 1 3 0
5 -6 2 0
4 1 -2 0
-5 1 -2 0
1 4 3 0
1 -5 3 0
6 -3 -5 0
1 -6 3 0
1 4 6 0
4 6 3 0
-5 -3 -2 0
1 -3 5 0
